36 10 61 0 44 17 53 47 38 23 40 24 42 13 73 5 16 51 48 79 4 67 18 26 14 66 69 43 3 65 62 70 77 30 41 22 68 15 76 49 57 11 28 25 72 46 55 19 75 2 50 71 29 21 78 12 20 9 52 35 27 31 33 45 6 8 64 56 58 63 60 1 54 32 7 74 34 39 59 37